decision_x1=[0,2];
decision_x2=[0,2];
decision_x3=[0,2];
decision_x4=[0,2];
decision_x5=[0,2];
decision_x6=[0,2];
decision_x7=[0,2];
decision_x8=[0,2];
decision_x9=[0,2];
decision_x10=[0,2];
decision_x11=[0,2];
decision_x12=[0,2];
random_y1=[0,2];
random_y2=[0,2];
random_y3=[0,2];
constraint_x2_x1=[
0,0,7.5|
0,1,7.1|
0,2,1.4|
1,0,6.2|
1,1,1.5|
1,2,7|
2,0,6.5|
2,1,9.6|
2,2,3.2|
];
constraint_x3_x1=[
0,0,4.7|
0,1,4|
0,2,3.3|
1,0,1.5|
1,1,5.1|
1,2,6.9|
2,0,2.3|
2,1,1.5|
2,2,4.7|
];
constraint_x4_x1=[
0,0,9.4|
0,1,2|
0,2,3.9|
1,0,8.5|
1,1,0.31|
1,2,9.6|
2,0,7.8|
2,1,9.3|
2,2,4.5|
];
constraint_x4_x2=[
0,0,7.8|
0,1,4.3|
0,2,3.1|
1,0,2.4|
1,1,6.5|
1,2,2.9|
2,0,0.55|
2,1,2.5|
2,2,6.4|
];
constraint_x5_x2=[
0,0,8.7|
0,1,2.3|
0,2,7.9|
1,0,3.8|
1,1,7.9|
1,2,6.2|
2,0,0.91|
2,1,6|
2,2,1.3|
];
constraint_x5_x3=[
0,0,9.8|
0,1,4.9|
0,2,9.2|
1,0,2.1|
1,1,6.7|
1,2,3.9|
2,0,2.9|
2,1,2.2|
2,2,8.5|
];
constraint_x6_x1=[
0,0,8|
0,1,8.6|
0,2,5.4|
1,0,4.9|
1,1,0.34|
1,2,5.1|
2,0,3.3|
2,1,1.7|
2,2,0.72|
];
constraint_x6_x2=[
0,0,5.4|
0,1,2.8|
0,2,1.9|
1,0,2.8|
1,1,6|
1,2,6|
2,0,2.6|
2,1,0.58|
2,2,6.8|
];
constraint_x7_x1=[
0,0,2.1|
0,1,7.1|
0,2,6.3|
1,0,7|
1,1,4.1|
1,2,7.3|
2,0,6.6|
2,1,9|
2,2,6.5|
];
constraint_x7_x3=[
0,0,5.5|
0,1,5.8|
0,2,1.4|
1,0,6.9|
1,1,7.4|
1,2,0.22|
2,0,2|
2,1,8.6|
2,2,5.5|
];
constraint_x7_x5=[
0,0,1.7|
0,1,7.1|
0,2,10|
1,0,9.6|
1,1,3.7|
1,2,1.6|
2,0,5.4|
2,1,0.17|
2,2,0.42|
];
constraint_x8_x5=[
0,0,6.3|
0,1,0.72|
0,2,0.2|
1,0,7.5|
1,1,5.1|
1,2,6.5|
2,0,6.7|
2,1,8.7|
2,2,9.6|
];
constraint_x8_x7=[
0,0,3.3|
0,1,4.2|
0,2,8.2|
1,0,4.6|
1,1,2.5|
1,2,3.8|
2,0,1.9|
2,1,7.3|
2,2,4.5|
];
constraint_x9_x1=[
0,0,3.1|
0,1,9.7|
0,2,9.5|
1,0,9|
1,1,6|
1,2,6.2|
2,0,2|
2,1,3.5|
2,2,6.4|
];
constraint_x9_x3=[
0,0,7.6|
0,1,4.2|
0,2,5.5|
1,0,0.29|
1,1,5.8|
1,2,5.9|
2,0,5.9|
2,1,1.8|
2,2,3.8|
];
constraint_x9_x6=[
0,0,1.6|
0,1,3.9|
0,2,5.1|
1,0,1.8|
1,1,4.5|
1,2,5|
2,0,1.7|
2,1,2|
2,2,8.8|
];
constraint_x9_x7=[
0,0,3.9|
0,1,9.1|
0,2,9.9|
1,0,4.1|
1,1,5.4|
1,2,7.6|
2,0,2.6|
2,1,9.7|
2,2,4.7|
];
constraint_x9_x8=[
0,0,2.6|
0,1,4.3|
0,2,6.5|
1,0,3|
1,1,6.5|
1,2,2.2|
2,0,5.4|
2,1,5.8|
2,2,2.1|
];
constraint_x10_x1=[
0,0,5.4|
0,1,1.2|
0,2,4.4|
1,0,5.3|
1,1,2.6|
1,2,5.7|
2,0,3.9|
2,1,0.056|
2,2,7.4|
];
constraint_x10_x2=[
0,0,9.3|
0,1,4.5|
0,2,3.5|
1,0,2.8|
1,1,2.2|
1,2,5.4|
2,0,0.59|
2,1,5.8|
2,2,0.011|
];
constraint_x10_x3=[
0,0,7.7|
0,1,9.2|
0,2,5|
1,0,9.1|
1,1,5.5|
1,2,4.5|
2,0,1.8|
2,1,2.4|
2,2,6|
];
constraint_x10_x4=[
0,0,7.9|
0,1,6.5|
0,2,2.7|
1,0,4.8|
1,1,1.3|
1,2,5.8|
2,0,9.7|
2,1,5.7|
2,2,9.5|
];
constraint_x10_x5=[
0,0,4.9|
0,1,3.2|
0,2,5.2|
1,0,6.8|
1,1,5.2|
1,2,8.5|
2,0,8.2|
2,1,2.5|
2,2,5.9|
];
constraint_x10_x6=[
0,0,2.2|
0,1,5.8|
0,2,5.6|
1,0,9.9|
1,1,3.8|
1,2,0.56|
2,0,0.57|
2,1,6.5|
2,2,9.9|
];
constraint_x11_x2=[
0,0,4.9|
0,1,0.53|
0,2,8.4|
1,0,5|
1,1,3.4|
1,2,2.4|
2,0,7.4|
2,1,3.4|
2,2,1.8|
];
constraint_x11_x8=[
0,0,8.4|
0,1,1|
0,2,9.8|
1,0,9|
1,1,7.4|
1,2,8.1|
2,0,8.2|
2,1,2.4|
2,2,0.35|
];
constraint_x11_x9=[
0,0,6|
0,1,9.2|
0,2,2.7|
1,0,0.31|
1,1,1|
1,2,6|
2,0,5.9|
2,1,1.1|
2,2,5.9|
];
constraint_x12_x1=[
0,0,5|
0,1,3|
0,2,1.8|
1,0,1.1|
1,1,6.8|
1,2,5.3|
2,0,4|
2,1,1.8|
2,2,1|
];
constraint_x12_x4=[
0,0,3.9|
0,1,5.8|
0,2,5.8|
1,0,3.7|
1,1,9.9|
1,2,3.2|
2,0,1.3|
2,1,7.1|
2,2,2.8|
];
constraint_x12_x5=[
0,0,4.4|
0,1,1.4|
0,2,5.6|
1,0,9.1|
1,1,0.79|
1,2,7.4|
2,0,3|
2,1,0.88|
2,2,3.3|
];
constraint_x12_x7=[
0,0,5.1|
0,1,9.4|
0,2,9.7|
1,0,4.3|
1,1,5.4|
1,2,4.8|
2,0,8.9|
2,1,10|
2,2,7.6|
];
constraint_x12_x8=[
0,0,3.5|
0,1,1.4|
0,2,6.7|
1,0,7.4|
1,1,5.7|
1,2,5.2|
2,0,5.2|
2,1,1.9|
2,2,2.3|
];
constraint_x12_x9=[
0,0,4|
0,1,4.2|
0,2,9.6|
1,0,8|
1,1,5.9|
1,2,4.2|
2,0,1.4|
2,1,9.3|
2,2,10|
];
constraint_x1_y1=[
0,0,3.2|
0,1,6.1|
0,2,0.28|
1,0,2.2|
1,1,8.3|
1,2,0.17|
2,0,7.9|
2,1,6.7|
2,2,3.9|
];
constraint_x2_y2=[
0,0,2.7|
0,1,2.4|
0,2,7.3|
1,0,1|
1,1,5.3|
1,2,0.64|
2,0,9.5|
2,1,9.1|
2,2,2.5|
];
constraint_x3_y3=[
0,0,1.7|
0,1,4.3|
0,2,6|
1,0,2.8|
1,1,9.7|
1,2,4.6|
2,0,6.2|
2,1,5.9|
2,2,4.9|
];
initial_distribution_y1=[0.0073,0.39,0.6];
initial_distribution_y2=[0.14,0.75,0.11];
initial_distribution_y3=[0.17,0.32,0.51];
transition_y1=[
0.31,0.42,0.27|
0.41,0.054,0.53|
0.19,0.31,0.5|
];
transition_y2=[
0.18,0.34,0.48|
0.42,0.31,0.27|
0.075,0.36,0.56|
];
transition_y3=[
0.068,0.59,0.34|
0.4,0.23,0.37|
0.12,0.29,0.59|
];
